unsat
(:SPACER-inductive-gen                43
 :SPACER-inductive-gen-weaken-fail    43
 :SPACER-inductive-level              13
 :SPACER-max-depth                    15
 :SPACER-max-query-lvl                15
 :SPACER-non-local-gen                38
 :SPACER-num-active-lemmas            17
 :SPACER-num-cant-abstract            2
 :SPACER-num-ctp-blocked              27
 :SPACER-num-invariants               12
 :SPACER-num-is_invariant             99
 :SPACER-num-lemma-jumped             2
 :SPACER-num-lemmas                   75
 :SPACER-num-pobs                     27
 :SPACER-num-propagations             37
 :SPACER-num-queries                  47
 :SPACER-subsume-pob                  16
 :SPACER-subsume-success              34
 :added-eqs                           2116
 :arith-assert-diseq                  246
 :arith-assert-lower                  5988
 :arith-assert-upper                  6416
 :arith-bound-prop                    136
 :arith-conflicts                     70
 :arith-eq-adapter                    174
 :arith-fixed-eqs                     276
 :arith-num-rows                      34
 :arith-offset-eqs                    196
 :arith-pivots                        228
 :arith-row-summations                680
 :arith-tableau-max-columns           76
 :arith-tableau-max-rows              34
 :conflicts                           698
 :decisions                           2840
 :del-clause                          700
 :final-checks                        170
 :iuc_solver.num_proxies              59
 :max-memory                          32.46
 :memory                              31.93
 :minimized-lits                      20
 :mk-bool-var                         2940
 :mk-clause                           1520
 :num-allocs                          66265071
 :num-checks                          682
 :pool_solver.checks                  341
 :pool_solver.checks.sat              85
 :propagations                        29746
 :rlimit-count                        185483
 :time                                0.27
 :time.iuc_solver.get_iuc             0.04
 :time.iuc_solver.get_iuc.hyp_reduce1 0.01
 :time.iuc_solver.get_iuc.hyp_reduce2 0.01
 :time.iuc_solver.get_iuc.learn_core  0.01
 :time.pool_solver.proof              0.01
 :time.pool_solver.smt.total          0.07
 :time.pool_solver.smt.total.sat      0.02
 :time.spacer.ctp                     0.00
 :time.spacer.init_rules              0.00
 :time.spacer.mbp                     0.01
 :time.spacer.solve                   0.25
 :time.spacer.solve.propagate         0.03
 :time.spacer.solve.reach             0.22
 :time.spacer.solve.reach.children    0.02
 :time.spacer.solve.reach.cluster     0.02
 :time.spacer.solve.reach.gen.global  0.06
 :time.spacer.solve.reach.gen.ind     0.01)
(:max-memory   32.46
 :memory       31.93
 :num-allocs   66265071
 :rlimit-count 185483
 :time         0.27
 :total-time   0.29)
